# CHELPG calculation for  /home/lin1209/test_ligand/NH3_2C_Angew-1+H_minimized/geo_xtb/xtbopt.xyz
! wB97X-D3 def2-TZVP TightSCF CHELPG Grid4 

%base "charges"

%pal nprocs 128
end
#     charge multiplicity
* xyz 1 1
  N           0.54043272271497   -3.71895032398973    0.79410079297299
  C          -0.07829672114562    2.67439018289003    0.24217136973119
  H          -0.32098543800784   -4.09355127559432    0.37539439023346
  H           0.69905632281483   -4.18492833318179    1.69645292112050
  H           1.32415793662676   -3.93821815572802    0.16457821204747
  C           0.42326644383892   -2.23108581569009    0.95320269925065
  H          -0.42768922528377   -2.01663405480655    1.60131643280006
  H           1.32945019872262   -1.86144062169340    1.43463900245509
  C           0.23679827628600   -1.55561398440626   -0.39985566170679
  H          -0.66974712972372   -1.92352891946558   -0.88312522371082
  H           1.09146186322840   -1.76730174835436   -1.04522802907578
  C           1.26803956741273    0.71747667657920   -0.08893658471698
  C           1.16741595145579    2.08095738649398    0.12470070102046
  C           0.12314883942323   -0.06083564587133   -0.19060369770640
  C          -1.12271904484678    0.53801398839826   -0.06856204255296
  C          -1.22294818979891    1.90192393021987    0.14409387858930
  H           2.24269063378247    0.26207241535497   -0.19169859459876
  H           2.06176156400495    2.67995084829395    0.19569901634190
  H          -2.01946135829497   -0.05856421059955   -0.15384478783318
  H          -0.15626942255060    3.73811637205882    0.40452896503693
  H          -2.19556379065934    2.36085128909195    0.22947624030196
*