     # Non-bonded interactions (pair-wise)
     pair_coeff           1          1          lj/cut/coul/long      0.015000             2.599642                    
     pair_coeff           1          2          lj/cut/coul/long      0.015346             2.279809                    
     pair_coeff           1          3          lj/cut/coul/long      0.015346             1.834360                    
     pair_coeff           1          4          lj/cut/coul/long      2.447536             3.100000                    # I-H
     pair_coeff           1          5          lj/cut/coul/long      0.035917             2.999656                    
     pair_coeff           1          6          lj/cut/coul/long      0.035917             2.999656                    
     pair_coeff           1          7          lj/cut/coul/long      0.035917             2.999656                    
     pair_coeff           1          8          lj/cut/coul/long      0.040509             2.999656                    
     pair_coeff           1          9          lj/cut/coul/long      0.050498             2.924821                    
     pair_coeff           1          10         lj/cut/coul/long      0.596960             2.709990                    # Pb-H, HC, carbon
     pair_coeff           2          2          lj/cut/coul/long      0.015700             1.959977                    
     pair_coeff           2          3          lj/cut/coul/long      0.015700             1.514528                    
     pair_coeff           2          4          lj/cut/coul/long      2.447536             3.100000                    # I-H
     pair_coeff           2          5          lj/cut/coul/long      0.036745             2.679823                    
     pair_coeff           2          6          lj/cut/coul/long      0.036745             2.679823                    
     pair_coeff           2          7          lj/cut/coul/long      0.036745             2.679823                    
     pair_coeff           2          8          lj/cut/coul/long      0.041444             2.679823                    
     pair_coeff           2          9          lj/cut/coul/long      0.051662             2.604988                    
     pair_coeff           2          10         lj/cut/coul/long      0.596960             2.709990                    # Pb-H, HC, carbon
     pair_coeff           3          3          lj/cut/coul/long      0.015700             1.069078                    
     pair_coeff           3          4          lj/cut/coul/long      2.447536             2.750000                    # I-H, HN, nitrogen
     pair_coeff           3          5          lj/cut/coul/long      0.036745             2.234374                    
     pair_coeff           3          6          lj/cut/coul/long      0.036745             2.234374                    
     pair_coeff           3          7          lj/cut/coul/long      0.036745             2.234374                    
     pair_coeff           3          8          lj/cut/coul/long      0.041444             2.234374                    
     pair_coeff           3          9          lj/cut/coul/long      0.051662             2.159539                    
     pair_coeff           3          10         lj/cut/coul/long      0.596960             2.264540                    # # Pb-H, HN, nitrogen
     pair_coeff           4          4          buck/coul/long        22793.338580         0.482217             696.949542                  # I-I
     pair_coeff           4          5          buck/coul/long        112936.714213        0.342426             0.000000                    # I-C
     pair_coeff           4          6          buck/coul/long        112936.714213        0.342426             0.000000                    # I-C
     pair_coeff           4          7          buck/coul/long        112936.714213        0.342426             0.000000                    # I-C
     pair_coeff           4          8          buck/coul/long        112936.714213        0.342426             0.000000                    # I-C
     pair_coeff           4          9          buck/coul/long        112936.714213        0.342426             0.000000                    # I-N
     pair_coeff           4          10         buck/coul/long        103496.133010        0.321737             0.000000                    # Pb_I-I
     pair_coeff           5          5          lj/cut/coul/long      0.086000             3.399670                    
     pair_coeff           5          6          lj/cut/coul/long      0.086000             3.399670                    
     pair_coeff           5          7          lj/cut/coul/long      0.086000             3.399670                    
     pair_coeff           5          8          lj/cut/coul/long      0.096997             3.399670                    
     pair_coeff           5          9          lj/cut/coul/long      0.120913             3.324834                    
     pair_coeff           5          10         buck/coul/long        32690390.937995      0.150947             0.000000                    # Pb_I-C
     pair_coeff           6          6          lj/cut/coul/long      0.086000             3.399670                    
     pair_coeff           6          7          lj/cut/coul/long      0.086000             3.399670                    
     pair_coeff           6          8          lj/cut/coul/long      0.096997             3.399670                    
     pair_coeff           6          9          lj/cut/coul/long      0.120913             3.324834                    
     pair_coeff           6          10         buck/coul/long        32690390.937995      0.150947             0.000000                    # Pb_I-C
     pair_coeff           7          7          lj/cut/coul/long      0.086000             3.399670                    
     pair_coeff           7          8          lj/cut/coul/long      0.096997             3.399670                    
     pair_coeff           7          9          lj/cut/coul/long      0.120913             3.324834                    
     pair_coeff           7          10         buck/coul/long        32690390.937995      0.150947             0.000000                    # Pb_I-C
     pair_coeff           8          8          lj/cut/coul/long      0.109400             3.399670                    
     pair_coeff           8          9          lj/cut/coul/long      0.136374             3.324834                    
     pair_coeff           8          10         buck/coul/long        32690390.937995      0.150947             0.000000                    # Pb_I-C
     pair_coeff           9          9          lj/cut/coul/long      0.170000             3.249999                    
     pair_coeff           9          10         buck/coul/long        32690390.937995      0.150947             0.000000                    # Pb_I-N
     pair_coeff           10         10         buck/coul/long        70359906.629702      0.131258             0.000000                    # Pb_I-Pb_I

     # Stretching interactions
     bond_coeff           1           345.800000           1.086000            
     bond_coeff           2           345.800000           1.086000            
     bond_coeff           3           338.700000           1.091000            
     bond_coeff           4           373.200000           1.030400            
     bond_coeff           5           461.100000           1.398400            
     bond_coeff           6           461.100000           1.398400            
     bond_coeff           7           461.100000           1.398400            
     bond_coeff           8           321.000000           1.515600            
     bond_coeff           9           283.300000           1.511000            

     # Bending interactions
     angle_coeff          1           48.180000            119.880000          
     angle_coeff          2           48.180000            119.880000          
     angle_coeff          3           48.180000            119.880000          
     angle_coeff          4           48.180000            119.880000          
     angle_coeff          5           39.220000            109.750000          
     angle_coeff          6           46.620000            111.450000          
     angle_coeff          7           48.650000            108.010000          
     angle_coeff          8           40.580000            108.300000          
     angle_coeff          9           45.850000            110.110000          
     angle_coeff          10          66.620000            120.020000          
     angle_coeff          11          66.620000            120.020000          
     angle_coeff          12          66.620000            120.020000          
     angle_coeff          13          66.620000            120.020000          
     angle_coeff          14          63.530000            120.770000          
     angle_coeff          15          64.770000            113.800000          

     # Dihedral interactions
     dihedral_coeff       1           0.000000             7.250000             0.000000             0.000000            
     dihedral_coeff       2           0.000000             7.250000             0.000000             0.000000            
     dihedral_coeff       3           0.000000             7.250000             0.000000             0.000000            
     dihedral_coeff       4           0.000000             7.250000             0.000000             0.000000            
     dihedral_coeff       5           0.000000             7.250000             0.000000             0.000000            
     dihedral_coeff       6           0.000000             7.250000             0.000000             0.000000            
     dihedral_coeff       7           0.000000             7.250000             0.000000             0.000000            
     dihedral_coeff       8           0.000000             7.250000             0.000000             0.000000            
     dihedral_coeff       9           0.000000             0.000000             0.000000             0.000000            
     dihedral_coeff       10          0.000000             0.000000             0.311111             0.000000            
     dihedral_coeff       11          0.000000             0.000000             0.311111             0.000000            
     dihedral_coeff       12          0.000000             7.250000             0.000000             0.000000            
     dihedral_coeff       13          0.000000             7.250000             0.000000             0.000000            
     dihedral_coeff       14          0.000000             7.250000             0.000000             0.000000            
     dihedral_coeff       15          0.000000             7.250000             0.000000             0.000000            
     dihedral_coeff       16          0.000000             0.000000             0.000000             0.000000            
